Copyright (C) 2013-2015, Filipe Brandao
Build (method = -2)
  #dp: 7046
  Step-3' Graph: 113 vertices and 2933 arcs (0.01s)
  Step-4' Graph: 112 vertices and 2931 arcs (0.01s)
  #V4/#V3 = 0.99
  #A4/#A3 = 1.00
Ready! (0.01s)
Optimize a model with 193 rows, 2932 columns and 8578 nonzeros
Found heuristic solution: objective 401
Presolve removed 27 rows and 27 columns
Presolve time: 0.01s
Presolved: 166 rows, 2905 columns, 8499 nonzeros
Variable types: 0 continuous, 2905 integer (0 binary)
Optimize a model with 166 rows, 2905 columns and 8499 nonzeros
Presolved: 166 rows, 2905 columns, 8499 nonzeros

Root barrier log...

Ordering time: 0.00s

Barrier statistics:
 AA' NZ     : 5.262e+03
 Factor NZ  : 8.513e+03 (roughly 1 MByte of memory)
 Factor Ops : 5.853e+05 (less than 1 second per iteration)
 Threads    : 1

                  Objective                Residual
Iter       Primal          Dual         Primal    Dual     Compl     Time
   0   1.04927058e+04 -8.13397700e+04  1.23e+05 2.22e-16  1.36e+02     0s
   1   3.45949192e+03 -2.80509427e+04  2.41e+04 1.33e-15  2.81e+01     0s
   2   8.24588540e+02 -1.18721099e+04  2.59e+03 2.11e-14  4.35e+00     0s
   3   5.11992554e+02 -2.67351123e+03  1.49e+02 8.07e-04  6.20e-01     0s
   4   4.69024396e+02 -1.05447997e+03  3.29e-01 2.47e-04  2.60e-01     0s
   5   4.27613768e+02 -4.44906347e+02  2.31e-01 3.66e-15  1.49e-01     0s
   6   3.75345311e+02 -2.09756722e+02  1.63e-01 2.44e-15  9.98e-02     0s
   7   3.03615838e+02 -3.00450224e+01  9.92e-02 1.55e-15  5.69e-02     0s
   8   2.40643531e+02  6.77428115e+01  4.15e-02 1.11e-15  2.95e-02     0s
   9   2.21680645e+02  1.20746738e+02  2.47e-02 1.65e-15  1.72e-02     0s
  10   2.17424812e+02  1.61035430e+02  1.66e-02 1.20e-15  9.61e-03     0s
  11   2.07356744e+02  1.89842065e+02  2.53e-03 1.46e-15  2.99e-03     0s
  12   2.03900713e+02  1.94645928e+02  1.05e-03 1.51e-15  1.58e-03     0s
  13   2.02626972e+02  1.97276674e+02  5.33e-04 1.32e-15  9.12e-04     0s
  14   2.02024527e+02  1.99175752e+02  2.84e-04 1.41e-15  4.86e-04     0s
  15   2.01788708e+02  1.99776277e+02  2.14e-04 1.53e-15  3.43e-04     0s
  16   2.01564966e+02  2.00209259e+02  1.52e-04 1.36e-15  2.31e-04     0s
  17   2.01478332e+02  2.00345528e+02  1.21e-04 1.55e-15  1.93e-04     0s
  18   2.01295467e+02  2.00678924e+02  7.05e-05 1.38e-15  1.05e-04     0s
  19   2.01243475e+02  2.00846606e+02  5.74e-05 1.55e-15  6.77e-05     0s
  20   2.01071126e+02  2.01044034e+02  1.09e-06 1.24e-15  4.62e-06     0s
  21   2.01060036e+02  2.01059932e+02  3.58e-09 1.14e-15  1.77e-08     0s
  22   2.01060000e+02  2.01060000e+02  1.61e-12 1.27e-15  1.86e-14     0s

Barrier solved model in 22 iterations and 0.03 seconds
Optimal objective 2.01060000e+02


Root relaxation: objective 2.010600e+02, 1653 iterations, 0.04 seconds

    Nodes    |    Current Node    |     Objective Bounds      |     Work
 Expl Unexpl |  Obj  Depth IntInf | Incumbent    BestBd   Gap | It/Node Time

     0     0  201.06000    0   62  401.00000  201.06000  49.9%     -    0s
H    0     0                     202.0000000  201.06000  0.47%     -    0s

Explored 0 nodes (2671 simplex iterations) in 0.12 seconds
Thread count was 1 (of 4 available processors)

Optimal solution found (tolerance 0.00e+00)
Best objective 2.020000000000e+02, best bound 2.020000000000e+02, gap 0.0%
Preprocessing time: 0.01 seconds
Gurobi run time: 0.12 seconds
Total run time: 0.13 seconds
Objective: 202
Solution:
4 x [i=1, i=51]
2 x [i=1, i=72, i=80]
2 x [i=2, i=50]
6 x [i=2, i=73, i=78]
3 x [i=3, i=49]
1 x [i=3, i=74]
5 x [i=4, i=48]
1 x [i=4, i=68, i=81]
4 x [i=4, i=70, i=79]
6 x [i=5, i=47]
1 x [i=5, i=67, i=81]
1 x [i=5, i=79]
9 x [i=6, i=46]
5 x [i=7, i=45]
5 x [i=7, i=70, i=76]
4 x [i=8, i=44]
3 x [i=9, i=43]
2 x [i=10, i=42]
6 x [i=11, i=41]
2 x [i=11, i=65, i=77]
6 x [i=12, i=40]
2 x [i=12, i=61, i=80]
4 x [i=13, i=39]
1 x [i=14, i=38]
1 x [i=14, i=61, i=78]
2 x [i=14, i=62, i=77]
1 x [i=14, i=66]
2 x [i=15, i=37]
4 x [i=16, i=36]
5 x [i=17, i=35]
3 x [i=18, i=34]
4 x [i=19, i=33]
1 x [i=19, i=65, i=69]
2 x [i=20, i=32]
5 x [i=20, i=62, i=71]
6 x [i=21, i=31]
1 x [i=21, i=54, i=78]
1 x [i=21, i=61]
6 x [i=22, i=30]
5 x [i=23, i=29]
7 x [i=24, i=28]
1 x [i=24, i=53, i=76]
4 x [i=24, i=54, i=75]
3 x [i=25, i=27]
3 x [i=26, i=26]
5 x [i=27, i=60, i=66]
3 x [i=27, i=61, i=65]
3 x [i=29, i=56, i=68]
1 x [i=30, i=49, i=74]
4 x [i=34, i=55, i=64]
2 x [i=36, i=46, i=71]
1 x [i=36, i=50, i=67]
2 x [i=37, i=49, i=67]
3 x [i=38, i=38, i=77]
3 x [i=39, i=55, i=59]
2 x [i=42, i=43, i=68]
1 x [i=42, i=44, i=67]
2 x [i=42, i=52, i=59]
2 x [i=42, i=53, i=58]
1 x [i=42, i=55, i=56]
3 x [i=43, i=53, i=57]
1 x [i=44, i=53, i=56]
3 x [i=49, i=52, i=52]
1 x [i=49, i=65, i=69, i=71]
2 x [i=51, i=51, i=72, i=80]
3 x [i=53, i=63, i=64, i=74]
1 x [i=55, i=59, i=69, i=71]
1 x [i=57, i=68, i=74, i=81]
